938410
21 1 6578
1 6 25297
6 9 47658
9 34 90444
34 25 30137
25 23 11530
23 38 7449
38 29 745
29 36 16895
36 7 11794
7 13 23211
13 28 6411
28 31 12751
31 39 9087
39 30 6375
30 37 941
37 26 14546
26 33 15458
33 12 3967
12 5 38538
5 32 3290
32 20 24202
20 24 65657
24 22 45980
22 4 23621
4 19 26533
19 40 13572
40 18 18404
18 27 12606
27 16 59028
16 3 71701
3 14 30026
14 17 42391
17 15 45489
15 8 26227
8 11 17581
11 35 5412
35 2 10541
2 10 10593
10 21 5744
